************************************************************************
file with basedata            : mm7_.bas
initial value random generator: 1823
************************************************************************
projects                      :  1
jobs (incl. supersource/sink ):  12
horizon                       :  74
RESOURCES
  - renewable                 :  2   R
  - nonrenewable              :  2   N
  - doubly constrained        :  0   D
************************************************************************
PROJECT INFORMATION:
pronr.  #jobs rel.date duedate tardcost  MPM-Time
    1     10      0       11        4       11
************************************************************************
PRECEDENCE RELATIONS:
jobnr.    #modes  #successors   successors
   1        1          3           2   3   4
   2        3          1           5
   3        3          3           6   7  10
   4        3          1           6
   5        3          2           9  10
   6        3          2           9  11
   7        3          1           8
   8        3          2           9  11
   9        3          1          12
  10        3          1          12
  11        3          1          12
  12        1          0        
************************************************************************
REQUESTS/DURATIONS:
jobnr. mode duration  R 1  R 2  N 1  N 2
------------------------------------------------------------------------
  1      1     0       0    0    0    0
  2      1     4       7    0    5   10
         2     6       0    1    4    8
         3    10       4    0    3    8
  3      1     1       0    7    9    7
         2     9       3    0    4    6
         3     9       2    0    5    6
  4      1     1       0    7    6    8
         2     6       0    5    5    8
         3     7       0    4    3    6
  5      1     1      10    0    8    8
         2     9       9    0    6    8
         3    10       8    0    4    8
  6      1     2       6    0    9    9
         2     6       4    0    9    9
         3     6       0   10    9    8
  7      1     1       0    9    7   10
         2     3       1    0    6    8
         3     4       0    3    4    5
  8      1     5       0    2    4    9
         2     5       8    0    3    6
         3     6       7    0    3    6
  9      1     4       9    0    8    9
         2     4       0    8    8    8
         3    10       9    0    5    8
 10      1     1       3    0    2   10
         2     2       0    7    2    9
         3     4       0    3    1    7
 11      1     4       0    8    5    7
         2     6       9    0    3    7
         3     8       7    0    2    6
 12      1     0       0    0    0    0
************************************************************************
RESOURCEAVAILABILITIES:
  R 1  R 2  N 1  N 2
   10    8   56   81
************************************************************************
MAXIMAL LAGS:
from  to  type  delay
    1   12   ES      0
    1    2   ES      0
    2   12   ES      0
    1    3   ES      0
    3   12   ES      0
    1    4   ES      0
    4   12   ES      0
    1    5   ES      0
    5   12   ES      0
    1    6   ES      0
    6   12   ES      0
    1    7   ES      0
    7   12   ES      0
    1    8   ES      0
    8   12   ES      0
    1    9   ES      0
    9   12   ES      0
    1   10   ES      0
   10   12   ES      0
    1   11   ES      0
   11   12   ES      0
    1   12   ES      0
    2    5   SS      0
    2    5   SE     -7
    2    5   ES      2
    2    5   EE     -4
    3    6   SS      1
    3    6   SE      0
    3    6   ES      1
    3    6   EE     -8
    3    7   SS    -10
    3    7   SE     -1
    3    7   ES      6
    3    7   EE    -10
    3   10   SS      4
    3   10   SE     -5
    3   10   ES     -8
    3   10   EE     10
    4    6   SS      3
    4    6   SE    -12
    4    6   ES    -11
    4    6   EE    -11
    5    9   SS     -4
    5    9   SE      0
    5    9   ES      1
    5    9   EE      1
    5   10   SS     -9
    5   10   SE     -3
    5   10   ES     -2
    5   10   EE      8
    6    9   SS      6
    6    9   SE    -12
    6    9   ES     12
    6    9   EE    -10
    6   11   SS     -9
    6   11   SE    -11
    6   11   ES      2
    6   11   EE      6
    7    8   SS      3
    7    8   SE      9
    7    8   ES      2
    7    8   EE     -9
    8    9   SS     -4
    8    9   SE    -11
    8    9   ES    -12
    8    9   EE     11
    8   11   SS      8
    8   11   SE     -4
    8   11   ES      6
    8   11   EE     -5
************************************************************************
